# Random Circle Problem
param d := 0.05; 
param n := 10; 
param radius := 2.00; 
param v0 := 
1 5.68
2 4.94
3 5.88
4 5.33
5 5.13
6 5.81
7 5.89
8 5.55
9 5.54
10 4.95
;
param cap := 
1 2.85217
2 3.95152
3 3.98160
4 5.48165
5 5.74818
6 5.97646
7 0.59009
8 0.87589
9 1.38379
10 2.33997
;
param x0 := 
1 2.00
2 1.62
3 0.62
4 -0.62
5 -1.62
6 -2.00
7 -1.62
8 -0.62
9 0.62
10 1.62
;
param y0 := 
1 -0.00
2 1.18
3 1.90
4 1.90
5 1.18
6 0.00
7 -1.18
8 -1.90
9 -1.90
10 -1.18
;
